LPFile/ns101.lp
Minimize
+ 8.0 x27 + 8.0 x28 + 8.0 x29 + 20.0 x30 + 20.0 x31 + 20.0 x32 + 12.0 x33 + 12.0 x34 + 12.0 x35 
Subject To
r_1: + x1 + x2 + x3  = 0
r_2: - 1.0 x1 + x4 + x5 - 1.0 x27 - 1.0 x30 - 1.0 x33  = 0
r_3: - 1.0 x2 + x6 + x7 - 1.0 x28 - 1.0 x31 - 1.0 x34  = 0
r_4: - 1.0 x3 + x8 + x9 - 1.0 x29 - 1.0 x32 - 1.0 x35  = 0
r_5: - 1.0 x4 + x10 + x11  = 0
r_6: - 1.0 x5 - 1.0 x8 + x12 + x13  = 0
r_7: - 1.0 x6 + x14 + x15  = 0
r_8: - 1.0 x7 + x16 + x17  = 0
r_9: - 1.0 x9 + x18 + x19  = 0
r_10: - 1.0 x10 + x20  = 0
r_11: - 1.0 x11 - 1.0 x12 + x21  = 0
r_12: - 1.0 x13 - 1.0 x18 + x22  = 0
r_13: - 1.0 x14 + x23  = 0
r_14: - 1.0 x15 - 1.0 x16 + x24  = 0
r_15: - 1.0 x17 + x25  = 0
r_16: - 1.0 x19 + x26  = 0
r_17: - 1.0 x20 + x27 + x28 + x29  = 0
r_18: - 1.0 x21 - 1.0 x22 - 1.0 x26 + x30 + x31 + x32  = 0
r_19: - 1.0 x23 - 1.0 x24 - 1.0 x25 + x33 + x34 + x35  = 0
r_00: + x1 + x2 + x3 + x4 + x5 + x6 + x7 + x8 + x9 + x10 + x11 + x12 + x13 + x14 + x15 + x16 + x17 + x18 + x19 + x20 + x21 + x22 + x23 + x24 + x25 + x26 + x27 + x28 + x29 + x30 + x31 + x32 + x33 + x34 + x35 = 1
End