TasksSet/ns101.txt
# first_arrival|exe_time_dist|deadline|period_dist
#0|[1,.2;2,.8]|5|[8,1]
---------------------
# soft tasks
# first_arrival|exe_time_dist|deadline|period_dist|cost
0|[3,1]|3|[4,1]|12
0|[1,1]|1|[4,1]|8